DIMACS2
20 165 31 44 13 279 175 122 300 179 133 294 81 230 148 213 110 271 155 263 91
p edge 320 1439
e 0 10 1.0
e 1 54 2.0
e 1 0 1.0
e 2 72 1.0
e 2 59 2.0
e 2 233 1.0
e 3 120 1.0
e 4 261 1.0
e 5 75 1.0
e 5 294 14.0
e 6 155 5.0
e 6 139 1.0
e 6 19 12.0
e 6 66 1.0
e 6 67 8.0
e 6 124 5.0
e 7 253 11.0
e 7 134 12.0
e 7 245 1.0
e 7 217 3.0
e 7 105 9.0
e 7 238 12.0
e 7 48 9.0
e 7 8 5.0
e 7 118 6.0
e 7 112 10.0
e 8 4 1.0
e 9 241 6.0
e 9 220 11.0
e 9 308 5.0
e 9 267 1.0
e 9 192 7.0
e 9 193 8.0
e 9 99 1.0
e 9 191 11.0
e 9 132 10.0
e 9 303 8.0
e 9 158 10.0
e 10 310 1.0
e 11 280 1.0
e 12 235 2.0
e 12 258 3.0
e 12 5 2.0
e 12 283 5.0
e 13 151 14.0
e 13 173 34.0
e 13 147 32.0
e 13 279 21.0
e 13 152 44.0
e 13 312 35.0
e 13 3 46.0
e 13 172 14.0
e 13 228 39.0
e 13 288 19.0
e 13 104 49.0
e 13 277 46.0
e 13 170 30.0
e 13 169 25.0
e 13 109 6.0
e 13 280 26.0
e 13 218 48.0
e 13 89 33.0
e 13 253 20.0
e 13 43 47.0
e 13 287 47.0
e 13 188 48.0
e 13 145 20.0
e 13 199 23.0
e 13 201 48.0
e 13 226 25.0
e 13 5 16.0
e 13 134 5.0
e 13 27 10.0
e 13 174 44.0
e 13 75 48.0
e 13 153 10.0
e 13 241 19.0
e 13 94 47.0
e 13 146 31.0
e 13 141 19.0
e 13 175 47.0
e 13 164 11.0
e 13 301 32.0
e 13 29 18.0
e 13 229 48.0
e 13 37 22.0
e 13 128 47.0
e 13 211 49.0
e 13 34 16.0
e 13 31 16.0
e 13 278 41.0
e 13 289 43.0
e 13 303 19.0
e 14 156 1.0
e 15 273 1.0
e 15 161 1.0
e 16 295 1.0
e 17 0 1.0
e 17 147 1.0
e 18 215 1.0
e 19 155 4.0
e 19 141 8.0
e 19 20 9.0
e 19 176 2.0
e 19 136 10.0
e 19 242 11.0
e 19 234 8.0
e 19 235 5.0
e 19 56 1.0
e 19 271 13.0
e 19 85 2.0
e 20 172 1.0
e 20 302 2.0
e 20 74 2.0
e 21 188 1.0
e 21 50 1.0
e 21 60 1.0
e 22 214 1.0
e 22 255 2.0
e 23 48 1.0
e 23 90 1.0
e 24 135 1.0
e 25 8 1.0
e 26 92 1.0
e 26 139 2.0
e 27 288 10.0
e 28 148 17.0
e 28 1 5.0
e 28 83 3.0
e 28 217 1.0
e 28 7 1.0
e 29 183 1.0
e 30 307 1.0
e 30 74 1.0
e 30 31 48.0
e 30 8 1.0
e 31 7 18.0
e 31 289 6.0
e 31 135 22.0
e 31 248 17.0
e 31 309 48.0
e 31 102 46.0
e 31 178 21.0
e 31 38 17.0
e 31 318 37.0
e 31 272 10.0
e 31 235 36.0
e 31 35 35.0
e 31 40 6.0
e 31 176 36.0
e 31 123 2.0
e 31 257 32.0
e 31 86 23.0
e 31 163 12.0
e 31 167 49.0
e 31 196 47.0
e 31 118 2.0
e 31 55 42.0
e 31 149 14.0
e 31 96 28.0
e 31 12 37.0
e 31 9 15.0
e 31 25 49.0
e 31 292 8.0
e 31 61 38.0
e 31 169 22.0
e 31 124 23.0
e 31 284 25.0
e 31 215 20.0
e 31 47 8.0
e 31 66 43.0
e 31 65 33.0
e 31 1 11.0
e 31 62 19.0
e 31 181 30.0
e 31 54 43.0
e 31 88 19.0
e 31 116 24.0
e 31 144 36.0
e 31 261 38.0
e 31 260 18.0
e 31 295 20.0
e 32 247 1.0
e 32 1 1.0
e 32 84 1.0
e 32 241 1.0
e 33 132 1.0
e 34 168 1.0
e 35 148 7.0
e 36 162 1.0
e 37 224 1.0
e 38 28 5.0
e 39 252 1.0
e 39 156 1.0
e 40 45 1.0
e 41 179 29.0
e 42 7 11.0
e 43 82 1.0
e 44 96 9.0
e 44 124 16.0
e 44 108 14.0
e 44 177 40.0
e 44 61 36.0
e 44 102 47.0
e 44 22 3.0
e 44 52 15.0
e 44 183 34.0
e 44 312 39.0
e 44 138 24.0
e 44 26 2.0
e 44 13 19.0
e 44 259 40.0
e 44 161 13.0
e 44 15 30.0
e 44 38 40.0
e 44 261 35.0
e 44 101 31.0
e 44 17 11.0
e 44 65 45.0
e 44 169 11.0
e 44 206 25.0
e 44 142 18.0
e 44 127 28.0
e 44 184 4.0
e 44 164 30.0
e 44 165 20.0
e 44 233 33.0
e 44 62 12.0
e 44 166 31.0
e 44 118 26.0
e 44 199 17.0
e 44 236 49.0
e 44 242 27.0
e 44 317 24.0
e 44 171 43.0
e 44 268 40.0
e 44 302 1.0
e 44 130 42.0
e 44 33 13.0
e 44 304 24.0
e 44 173 33.0
e 44 8 21.0
e 44 168 37.0
e 44 227 31.0
e 44 260 31.0
e 44 66 22.0
e 44 209 22.0
e 45 92 1.0
e 46 87 1.0
e 46 47 4.0
e 47 271 29.0
e 47 147 2.0
e 47 270 5.0
e 47 215 2.0
e 48 312 1.0
e 49 169 1.0
e 49 276 1.0
e 50 271 33.0
e 51 261 1.0
e 51 101 1.0
e 52 223 1.0
e 53 132 2.0
e 53 287 2.0
e 54 224 2.0
e 55 82 1.0
e 56 33 1.0
e 57 68 1.0
e 57 299 1.0
e 58 66 1.0
e 58 195 1.0
e 59 85 1.0
e 60 202 1.0
e 61 301 3.0
e 62 151 1.0
e 63 1 1.0
e 63 166 3.0
e 63 236 1.0
e 64 147 1.0
e 64 89 1.0
e 64 73 2.0
e 64 112 1.0
e 65 157 1.0
e 66 247 1.0
e 67 24 5.0
e 67 68 11.0
e 67 159 8.0
e 67 1 5.0
e 67 233 11.0
e 67 105 7.0
e 67 273 4.0
e 67 264 6.0
e 67 2 5.0
e 67 294 20.0
e 68 287 1.0
e 69 192 1.0
e 70 114 2.0
e 70 215 1.0
e 71 267 1.0
e 71 244 1.0
e 72 246 1.0
e 73 41 1.0
e 74 77 1.0
e 75 214 1.0
e 76 255 1.0
e 77 76 1.0
e 78 186 1.0
e 78 308 1.0
e 79 154 1.0
e 79 178 1.0
e 80 254 2.0
e 80 268 4.0
e 80 70 4.0
e 80 167 1.0
e 81 80 38.0
e 81 157 49.0
e 81 12 27.0
e 81 147 29.0
e 81 166 6.0
e 81 79 32.0
e 81 216 11.0
e 81 191 2.0
e 81 18 26.0
e 81 126 28.0
e 81 185 26.0
e 81 249 35.0
e 81 133 5.0
e 81 26 11.0
e 81 20 7.0
e 81 122 45.0
e 81 131 41.0
e 81 225 40.0
e 81 134 4.0
e 81 76 45.0
e 81 94 19.0
e 81 285 17.0
e 81 121 44.0
e 81 32 25.0
e 81 237 7.0
e 81 38 1.0
e 81 91 35.0
e 81 102 7.0
e 81 245 16.0
e 81 19 5.0
e 81 200 33.0
e 81 295 11.0
e 81 169 16.0
e 81 167 5.0
e 81 135 45.0
e 81 301 47.0
e 81 72 2.0
e 81 218 8.0
e 81 98 22.0
e 81 74 5.0
e 81 130 22.0
e 81 34 27.0
e 81 214 11.0
e 81 194 2.0
e 81 170 30.0
e 81 232 12.0
e 81 6 1.0
e 81 172 40.0
e 81 286 19.0
e 83 165 45.0
e 83 259 6.0
e 83 270 1.0
e 83 228 12.0
e 83 243 3.0
e 83 198 8.0
e 83 204 8.0
e 83 249 2.0
e 83 170 2.0
e 83 292 3.0
e 83 264 5.0
e 84 69 1.0
e 85 269 2.0
e 86 118 1.0
e 87 211 2.0
e 88 227 1.0
e 89 256 4.0
e 89 144 1.0
e 89 163 2.0
e 89 285 3.0
e 89 294 27.0
e 90 7 11.0
e 90 163 1.0
e 90 155 12.0
e 91 160 24.0
e 91 159 9.0
e 91 14 8.0
e 91 45 24.0
e 91 243 6.0
e 91 63 37.0
e 91 246 45.0
e 91 15 12.0
e 91 5 3.0
e 91 70 34.0
e 91 261 23.0
e 91 303 33.0
e 91 161 35.0
e 91 294 32.0
e 91 16 11.0
e 91 86 26.0
e 91 37 21.0
e 91 227 36.0
e 91 240 1.0
e 91 231 10.0
e 91 104 4.0
e 91 249 28.0
e 91 256 18.0
e 91 102 10.0
e 91 210 43.0
e 91 74 28.0
e 91 100 40.0
e 91 257 1.0
e 91 118 3.0
e 91 242 23.0
e 91 163 24.0
e 91 202 39.0
e 91 67 45.0
e 91 191 48.0
e 91 282 48.0
e 91 295 32.0
e 91 124 37.0
e 91 287 27.0
e 91 38 44.0
e 91 304 28.0
e 91 212 22.0
e 91 96 14.0
e 91 137 47.0
e 91 252 38.0
e 91 279 25.0
e 91 289 10.0
e 91 230 45.0
e 91 266 47.0
e 92 16 1.0
e 93 9 1.0
e 93 135 1.0
e 94 273 1.0
e 95 227 1.0
e 95 108 1.0
e 96 300 42.0
e 97 83 6.0
e 98 212 1.0
e 99 220 2.0
e 99 61 1.0
e 99 178 3.0
e 100 45 2.0
e 100 9 3.0
e 100 104 1.0
e 101 260 2.0
e 102 119 1.0
e 103 2 1.0
e 103 114 3.0
e 104 161 2.0
e 104 177 7.0
e 104 105 3.0
e 104 138 8.0
e 104 101 3.0
e 104 316 11.0
e 105 207 1.0
e 106 45 2.0
e 106 269 1.0
e 106 2 1.0
e 106 292 1.0
e 107 263 31.0
e 107 271 24.0
e 107 10 2.0
e 108 75 1.0
e 109 140 2.0
e 109 147 2.0
e 109 236 1.0
e 110 178 16.0
e 110 270 36.0
e 110 7 17.0
e 110 195 21.0
e 110 59 3.0
e 110 177 6.0
e 110 277 27.0
e 110 200 22.0
e 110 98 16.0
e 110 149 11.0
e 110 274 6.0
e 110 255 27.0
e 110 72 5.0
e 110 273 42.0
e 110 185 4.0
e 110 196 30.0
e 110 60 5.0
e 110 99 29.0
e 110 272 1.0
e 110 313 18.0
e 110 112 23.0
e 110 77 8.0
e 110 254 10.0
e 110 190 4.0
e 110 9 16.0
e 110 19 40.0
e 110 71 23.0
e 110 179 48.0
e 110 286 5.0
e 110 63 31.0
e 110 171 26.0
e 110 90 32.0
e 110 197 2.0
e 110 93 4.0
e 110 42 46.0
e 110 283 10.0
e 110 109 7.0
e 110 294 31.0
e 110 61 6.0
e 110 279 4.0
e 110 43 18.0
e 110 291 27.0
e 110 56 2.0
e 110 208 19.0
e 110 0 46.0
e 110 181 15.0
e 110 67 45.0
e 110 62 48.0
e 110 66 35.0
e 111 254 1.0
e 111 279 48.0
e 111 148 25.0
e 111 292 1.0
e 112 203 1.0
e 113 261 2.0
e 113 284 2.0
e 113 75 1.0
e 114 193 3.0
e 114 44 15.0
e 115 285 1.0
e 116 291 1.0
e 117 138 1.0
e 117 38 1.0
e 118 210 1.0
e 119 206 1.0
e 120 76 1.0
e 121 271 26.0
e 121 47 1.0
e 121 181 1.0
e 121 8 5.0
e 121 162 5.0
e 122 137 25.0
e 122 166 34.0
e 122 68 40.0
e 122 92 29.0
e 122 114 39.0
e 122 60 44.0
e 122 17 2.0
e 122 300 33.0
e 122 153 43.0
e 122 42 13.0
e 122 214 47.0
e 122 8 4.0
e 122 20 36.0
e 122 15 40.0
e 122 3 12.0
e 122 209 3.0
e 122 24 32.0
e 122 285 13.0
e 122 29 33.0
e 122 113 8.0
e 122 298 25.0
e 122 200 9.0
e 122 269 21.0
e 122 240 30.0
e 122 272 6.0
e 122 286 23.0
e 122 69 39.0
e 122 145 24.0
e 122 140 35.0
e 122 243 19.0
e 122 123 24.0
e 122 264 33.0
e 122 89 3.0
e 122 134 4.0
e 122 184 8.0
e 122 287 28.0
e 122 174 3.0
e 122 295 30.0
e 122 0 38.0
e 122 199 45.0
e 122 270 18.0
e 122 222 3.0
e 122 124 22.0
e 122 74 49.0
e 122 171 6.0
e 122 146 47.0
e 122 84 9.0
e 122 204 11.0
e 123 107 1.0
e 123 226 2.0
e 123 253 1.0
e 123 280 1.0
e 123 224 2.0
e 124 252 1.0
e 125 128 1.0
e 126 262 1.0
e 127 171 1.0
e 128 84 1.0
e 129 47 2.0
e 129 53 1.0
e 130 292 1.0
e 131 21 2.0
e 132 246 1.0
e 133 113 40.0
e 133 28 31.0
e 133 256 10.0
e 133 12 16.0
e 133 29 26.0
e 133 46 19.0
e 133 101 11.0
e 133 8 48.0
e 133 246 11.0
e 133 5 44.0
e 133 216 28.0
e 133 128 28.0
e 133 268 5.0
e 133 1 37.0
e 133 167 19.0
e 133 105 22.0
e 133 172 28.0
e 133 189 46.0
e 133 263 42.0
e 133 252 42.0
e 133 260 48.0
e 133 34 18.0
e 133 218 24.0
e 133 44 26.0
e 133 175 29.0
e 133 184 21.0
e 133 85 31.0
e 133 144 35.0
e 133 93 34.0
e 133 226 34.0
e 133 187 5.0
e 133 104 39.0
e 133 227 6.0
e 133 58 37.0
e 133 86 48.0
e 133 233 45.0
e 133 293 21.0
e 133 273 28.0
e 133 219 30.0
e 133 96 17.0
e 133 303 33.0
e 133 166 44.0
e 133 99 21.0
e 133 87 39.0
e 133 249 27.0
e 133 250 44.0
e 134 48 1.0
e 135 237 1.0
e 136 72 1.0
e 137 280 1.0
e 137 184 1.0
e 138 211 1.0
e 139 80 5.0
e 140 19 3.0
e 141 227 1.0
e 142 249 1.0
e 142 21 1.0
e 143 283 1.0
e 143 127 1.0
e 143 39 1.0
e 144 292 2.0
e 145 293 1.0
e 146 59 2.0
e 147 290 1.0
e 148 288 3.0
e 148 302 1.0
e 148 312 37.0
e 148 298 31.0
e 148 252 40.0
e 148 206 30.0
e 148 228 40.0
e 148 290 10.0
e 148 285 22.0
e 148 47 12.0
e 148 316 41.0
e 148 69 29.0
e 148 208 39.0
e 148 242 5.0
e 148 34 16.0
e 148 22 20.0
e 148 117 13.0
e 148 114 9.0
e 148 212 48.0
e 148 217 14.0
e 148 87 15.0
e 148 201 22.0
e 148 253 43.0
e 148 216 18.0
e 148 151 10.0
e 148 265 24.0
e 148 165 10.0
e 148 29 31.0
e 148 218 13.0
e 148 221 26.0
e 148 120 2.0
e 148 160 45.0
e 148 66 8.0
e 148 244 23.0
e 148 233 48.0
e 148 305 48.0
e 148 72 11.0
e 148 52 34.0
e 148 177 33.0
e 148 152 27.0
e 148 105 4.0
e 148 266 48.0
e 148 30 12.0
e 148 112 8.0
e 149 142 1.0
e 150 197 1.0
e 150 1 1.0
e 150 289 2.0
e 150 192 1.0
e 151 115 2.0
e 152 299 1.0
e 153 185 1.0
e 154 25 1.0
e 155 52 17.0
e 155 304 25.0
e 155 72 37.0
e 155 248 30.0
e 155 67 24.0
e 155 63 6.0
e 155 20 3.0
e 155 193 33.0
e 155 38 26.0
e 155 36 41.0
e 155 167 38.0
e 155 136 15.0
e 155 26 35.0
e 155 271 25.0
e 155 263 44.0
e 155 226 20.0
e 155 144 28.0
e 155 151 14.0
e 155 154 47.0
e 155 27 46.0
e 155 134 11.0
e 155 119 34.0
e 155 235 1.0
e 155 13 46.0
e 155 189 46.0
e 155 252 5.0
e 155 12 10.0
e 155 194 12.0
e 155 316 18.0
e 155 109 22.0
e 155 95 26.0
e 155 253 35.0
e 155 100 46.0
e 155 10 26.0
e 155 298 35.0
e 155 256 19.0
e 155 230 10.0
e 155 153 44.0
e 155 249 3.0
e 155 281 35.0
e 155 117 27.0
e 155 299 23.0
e 155 22 30.0
e 155 277 31.0
e 155 86 31.0
e 156 233 1.0
e 157 314 1.0
e 158 31 28.0
e 158 196 2.0
e 158 296 6.0
e 158 187 2.0
e 158 15 2.0
e 159 12 5.0
e 160 168 1.0
e 160 59 1.0
e 161 128 1.0
e 162 262 1.0
e 163 223 2.0
e 164 278 1.0
e 165 138 16.0
e 165 291 32.0
e 165 294 9.0
e 165 192 35.0
e 165 134 17.0
e 165 161 31.0
e 165 218 46.0
e 165 3 18.0
e 165 183 15.0
e 165 68 23.0
e 165 249 49.0
e 165 63 26.0
e 165 180 41.0
e 165 289 41.0
e 165 238 20.0
e 165 18 34.0
e 165 8 47.0
e 165 240 29.0
e 165 102 49.0
e 165 37 37.0
e 165 267 12.0
e 165 145 32.0
e 165 10 5.0
e 165 158 29.0
e 165 143 11.0
e 165 292 23.0
e 165 141 30.0
e 165 124 8.0
e 165 215 6.0
e 165 271 35.0
e 165 297 9.0
e 165 293 6.0
e 165 131 13.0
e 165 214 8.0
e 165 38 17.0
e 165 34 37.0
e 165 246 9.0
e 165 236 38.0
e 165 45 45.0
e 165 61 37.0
e 165 303 49.0
e 165 159 21.0
e 165 126 34.0
e 165 60 47.0
e 165 46 39.0
e 166 152 2.0
e 167 28 2.0
e 168 217 1.0
e 169 146 1.0
e 170 144 1.0
e 171 276 1.0
e 172 42 2.0
e 173 162 1.0
e 174 221 1.0
e 175 104 33.0
e 175 126 11.0
e 175 51 37.0
e 175 11 26.0
e 175 105 45.0
e 175 220 21.0
e 175 274 21.0
e 175 253 16.0
e 175 196 4.0
e 175 73 43.0
e 175 234 8.0
e 175 254 40.0
e 175 2 24.0
e 175 224 42.0
e 175 150 44.0
e 175 107 30.0
e 175 5 18.0
e 175 32 15.0
e 175 87 18.0
e 175 146 25.0
e 175 174 49.0
e 175 297 33.0
e 175 314 12.0
e 175 117 49.0
e 175 229 21.0
e 175 118 16.0
e 175 156 10.0
e 175 281 19.0
e 175 80 30.0
e 175 255 41.0
e 175 8 20.0
e 175 165 28.0
e 175 215 46.0
e 175 151 9.0
e 175 19 34.0
e 175 128 22.0
e 175 97 7.0
e 175 299 16.0
e 175 94 37.0
e 175 93 49.0
e 175 95 32.0
e 175 37 27.0
e 175 25 20.0
e 175 14 37.0
e 175 111 38.0
e 175 132 32.0
e 176 102 1.0
e 177 52 1.0
e 178 307 3.0
e 179 265 37.0
e 179 278 35.0
e 179 292 6.0
e 179 177 49.0
e 179 158 10.0
e 179 219 4.0
e 179 53 12.0
e 179 90 46.0
e 179 48 5.0
e 179 39 22.0
e 179 253 38.0
e 179 17 18.0
e 179 282 49.0
e 179 63 25.0
e 179 132 16.0
e 179 279 14.0
e 179 2 34.0
e 179 280 42.0
e 179 312 8.0
e 179 111 21.0
e 179 94 12.0
e 179 163 1.0
e 179 266 14.0
e 179 151 26.0
e 179 18 24.0
e 179 296 7.0
e 179 116 26.0
e 179 178 3.0
e 179 271 6.0
e 179 167 12.0
e 179 127 45.0
e 179 40 24.0
e 179 78 40.0
e 179 201 2.0
e 179 261 2.0
e 179 311 32.0
e 179 242 37.0
e 179 254 3.0
e 179 189 30.0
e 179 19 4.0
e 179 71 5.0
e 179 197 28.0
e 179 231 31.0
e 179 234 37.0
e 179 128 17.0
e 179 144 26.0
e 179 235 15.0
e 180 188 1.0
e 180 232 2.0
e 180 133 20.0
e 181 256 1.0
e 182 229 1.0
e 182 128 1.0
e 183 62 1.0
e 184 202 1.0
e 185 211 2.0
e 186 254 1.0
e 187 268 2.0
e 188 22 1.0
e 189 104 4.0
e 190 1 2.0
e 190 202 2.0
e 190 132 2.0
e 191 84 1.0
e 192 217 1.0
e 193 158 1.0
e 193 1 3.0
e 193 134 2.0
e 193 73 1.0
e 194 178 3.0
e 195 217 1.0
e 196 45 1.0
e 197 130 1.0
e 198 232 3.0
e 198 115 2.0
e 198 101 1.0
e 199 50 5.0
e 199 272 1.0
e 199 136 1.0
e 199 242 4.0
e 199 156 11.0
e 199 221 10.0
e 199 194 8.0
e 199 212 12.0
e 199 292 8.0
e 200 12 4.0
e 201 238 1.0
e 202 92 1.0
e 203 197 1.0
e 204 48 1.0
e 205 63 1.0
e 205 196 1.0
e 206 18 1.0
e 207 126 1.0
e 208 176 1.0
e 208 308 2.0
e 209 40 1.0
e 209 73 1.0
e 210 25 1.0
e 211 130 1.0
e 212 219 1.0
e 213 301 46.0
e 213 85 25.0
e 213 148 5.0
e 213 142 8.0
e 213 258 43.0
e 213 57 15.0
e 213 226 38.0
e 213 33 30.0
e 213 92 13.0
e 213 60 4.0
e 213 171 5.0
e 213 77 43.0
e 213 15 21.0
e 213 257 46.0
e 213 157 36.0
e 213 265 45.0
e 213 19 11.0
e 213 97 4.0
e 213 264 31.0
e 213 38 32.0
e 213 177 28.0
e 213 145 41.0
e 213 254 30.0
e 213 126 37.0
e 213 103 38.0
e 213 31 44.0
e 213 268 4.0
e 213 200 26.0
e 213 116 22.0
e 213 17 9.0
e 213 216 15.0
e 213 272 42.0
e 213 105 30.0
e 213 243 31.0
e 213 284 47.0
e 213 78 9.0
e 213 140 1.0
e 213 20 48.0
e 213 266 7.0
e 213 11 14.0
e 213 316 12.0
e 213 231 2.0
e 213 163 36.0
e 213 24 31.0
e 213 260 11.0
e 213 154 3.0
e 213 71 49.0
e 213 143 19.0
e 213 102 49.0
e 214 87 1.0
e 215 73 1.0
e 216 255 1.0
e 217 130 1.0
e 218 139 1.0
e 219 277 1.0
e 220 258 1.0
e 221 231 1.0
e 222 125 1.0
e 223 284 1.0
e 224 285 1.0
e 225 310 1.0
e 226 260 1.0
e 227 261 1.0
e 228 202 1.0
e 229 194 4.0
e 229 92 4.0
e 229 97 4.0
e 229 72 3.0
e 230 41 11.0
e 230 250 37.0
e 230 279 8.0
e 230 147 43.0
e 230 305 35.0
e 230 67 16.0
e 230 179 24.0
e 230 26 23.0
e 230 98 36.0
e 230 65 36.0
e 230 92 18.0
e 230 134 37.0
e 230 197 26.0
e 230 235 48.0
e 230 175 11.0
e 230 218 39.0
e 230 24 49.0
e 230 90 37.0
e 230 5 22.0
e 230 159 8.0
e 230 241 40.0
e 230 248 43.0
e 230 83 16.0
e 230 166 11.0
e 230 47 41.0
e 230 170 38.0
e 230 207 43.0
e 230 264 37.0
e 230 152 44.0
e 230 119 25.0
e 230 296 6.0
e 230 48 41.0
e 230 219 16.0
e 230 270 19.0
e 230 105 30.0
e 230 118 45.0
e 230 267 48.0
e 230 213 47.0
e 230 242 7.0
e 230 19 46.0
e 230 15 15.0
e 230 301 32.0
e 230 141 46.0
e 230 73 44.0
e 230 131 26.0
e 230 37 5.0
e 230 93 21.0
e 231 36 1.0
e 232 170 1.0
e 233 68 1.0
e 234 293 1.0
e 235 56 1.0
e 236 94 1.0
e 237 154 2.0
e 237 107 1.0
e 238 116 1.0
e 239 82 1.0
e 239 75 1.0
e 240 108 2.0
e 241 101 1.0
e 242 165 48.0
e 242 309 12.0
e 242 180 8.0
e 242 64 7.0
e 242 45 7.0
e 242 184 5.0
e 243 148 26.0
e 243 75 1.0
e 243 257 1.0
e 244 3 1.0
e 244 18 1.0
e 245 68 1.0
e 246 80 1.0
e 247 143 1.0
e 248 104 3.0
e 249 94 1.0
e 250 124 1.0
e 251 302 1.0
e 251 196 1.0
e 252 224 1.0
e 253 196 2.0
e 254 6 1.0
e 255 252 1.0
e 256 121 1.0
e 257 14 1.0
e 258 186 1.0
e 259 35 1.0
e 260 264 2.0
e 261 50 1.0
e 262 314 1.0
e 263 159 35.0
e 263 143 29.0
e 263 53 1.0
e 263 127 40.0
e 263 58 18.0
e 263 259 27.0
e 263 309 35.0
e 263 25 30.0
e 263 74 11.0
e 263 219 11.0
e 263 314 31.0
e 263 170 3.0
e 263 216 48.0
e 263 80 30.0
e 263 316 16.0
e 263 289 38.0
e 263 43 20.0
e 263 39 6.0
e 263 2 41.0
e 263 270 5.0
e 263 190 39.0
e 263 308 15.0
e 263 26 47.0
e 263 205 36.0
e 263 93 3.0
e 263 134 33.0
e 263 150 21.0
e 263 310 32.0
e 263 235 20.0
e 263 162 7.0
e 263 231 22.0
e 263 11 45.0
e 263 253 4.0
e 263 203 37.0
e 263 181 41.0
e 263 118 20.0
e 263 186 11.0
e 263 305 6.0
e 263 171 18.0
e 263 61 38.0
e 263 200 10.0
e 263 151 8.0
e 263 63 29.0
e 263 13 19.0
e 263 31 31.0
e 263 206 3.0
e 264 202 1.0
e 265 276 2.0
e 266 224 1.0
e 267 280 2.0
e 268 54 1.0
e 269 188 1.0
e 270 227 1.0
e 271 199 48.0
e 271 145 18.0
e 271 110 46.0
e 271 238 13.0
e 271 117 46.0
e 271 138 6.0
e 271 127 27.0
e 271 156 21.0
e 271 253 44.0
e 271 246 42.0
e 271 163 18.0
e 271 240 42.0
e 271 44 28.0
e 271 1 2.0
e 271 27 22.0
e 271 73 36.0
e 271 255 13.0
e 271 213 46.0
e 271 25 23.0
e 271 37 42.0
e 271 303 19.0
e 271 4 1.0
e 271 256 42.0
e 271 0 1.0
e 271 149 28.0
e 271 279 28.0
e 271 274 40.0
e 271 123 29.0
e 271 278 14.0
e 271 150 40.0
e 271 232 26.0
e 271 135 46.0
e 271 245 47.0
e 271 92 36.0
e 271 231 47.0
e 271 106 44.0
e 271 122 42.0
e 271 222 40.0
e 271 182 20.0
e 271 151 16.0
e 271 191 24.0
e 272 133 46.0
e 272 29 4.0
e 272 18 8.0
e 272 256 11.0
e 272 113 7.0
e 272 73 11.0
e 272 281 1.0
e 272 173 7.0
e 273 12 2.0
e 274 148 15.0
e 274 303 4.0
e 274 36 1.0
e 274 158 5.0
e 275 234 1.0
e 275 13 41.0
e 276 175 38.0
e 277 38 2.0
e 278 149 2.0
e 279 313 31.0
e 279 19 13.0
e 279 239 33.0
e 279 221 21.0
e 279 306 47.0
e 279 74 48.0
e 279 114 29.0
e 279 281 11.0
e 279 196 25.0
e 279 166 24.0
e 279 223 45.0
e 279 149 1.0
e 279 77 23.0
e 279 182 1.0
e 279 277 17.0
e 279 54 38.0
e 279 249 45.0
e 279 115 41.0
e 279 220 21.0
e 279 207 12.0
e 279 284 4.0
e 279 167 34.0
e 279 176 10.0
e 279 58 31.0
e 279 52 20.0
e 279 260 2.0
e 279 310 10.0
e 279 41 42.0
e 279 24 25.0
e 279 222 28.0
e 279 60 44.0
e 279 202 33.0
e 279 224 43.0
e 279 189 5.0
e 279 101 19.0
e 279 157 25.0
e 279 181 9.0
e 279 79 42.0
e 279 25 34.0
e 279 15 25.0
e 279 272 1.0
e 279 17 2.0
e 280 228 1.0
e 281 308 1.0
e 282 108 1.0
e 282 124 1.0
e 283 43 1.0
e 284 10 1.0
e 285 104 3.0
e 286 73 1.0
e 287 52 2.0
e 288 226 4.0
e 288 111 4.0
e 288 16 2.0
e 288 262 6.0
e 288 40 11.0
e 288 146 5.0
e 288 301 2.0
e 288 209 10.0
e 288 1 5.0
e 288 81 5.0
e 289 35 1.0
e 290 128 1.0
e 291 192 1.0
e 292 201 2.0
e 293 285 1.0
e 294 9 18.0
e 294 170 46.0
e 294 150 35.0
e 294 239 31.0
e 294 278 49.0
e 294 234 9.0
e 294 212 43.0
e 294 71 37.0
e 294 136 27.0
e 294 176 34.0
e 294 196 32.0
e 294 119 42.0
e 294 98 33.0
e 294 92 18.0
e 294 240 29.0
e 294 177 45.0
e 294 193 43.0
e 294 145 32.0
e 294 75 7.0
e 294 244 13.0
e 294 175 29.0
e 294 209 23.0
e 294 146 25.0
e 294 69 28.0
e 294 289 4.0
e 294 224 29.0
e 294 274 20.0
e 294 107 32.0
e 294 307 15.0
e 294 68 43.0
e 294 137 15.0
e 294 27 27.0
e 294 48 6.0
e 294 54 17.0
e 294 90 14.0
e 294 36 39.0
e 294 262 2.0
e 294 201 16.0
e 294 173 45.0
e 294 305 11.0
e 294 93 31.0
e 294 79 14.0
e 294 300 31.0
e 295 255 1.0
e 296 202 2.0
e 297 173 1.0
e 298 141 1.0
e 299 22 1.0
e 300 223 38.0
e 300 232 48.0
e 300 140 26.0
e 300 88 7.0
e 300 200 36.0
e 300 127 39.0
e 300 141 22.0
e 300 103 10.0
e 300 60 44.0
e 300 49 20.0
e 300 259 11.0
e 300 295 40.0
e 300 258 1.0
e 300 174 12.0
e 300 307 3.0
e 300 176 49.0
e 300 43 34.0
e 300 309 32.0
e 300 305 19.0
e 300 288 27.0
e 300 308 17.0
e 300 151 29.0
e 300 45 8.0
e 300 310 47.0
e 300 195 12.0
e 300 70 28.0
e 300 68 11.0
e 300 51 48.0
e 300 194 24.0
e 300 157 30.0
e 300 78 35.0
e 300 73 42.0
e 300 54 5.0
e 300 179 25.0
e 300 36 18.0
e 300 261 44.0
e 300 137 24.0
e 300 222 30.0
e 300 41 49.0
e 300 208 2.0
e 300 100 35.0
e 300 26 30.0
e 300 243 14.0
e 300 306 7.0
e 300 299 34.0
e 300 14 36.0
e 301 67 4.0
e 302 42 1.0
e 303 67 12.0
e 304 127 1.0
e 305 155 49.0
e 305 105 1.0
e 306 133 4.0
e 306 183 1.0
e 307 45 1.0
e 308 85 1.0
e 309 97 1.0
e 310 86 1.0
e 311 177 1.0
e 312 11 1.0
e 313 130 1.0
e 313 47 4.0
e 314 241 1.0
e 315 178 4.0
e 315 295 1.0
e 316 41 1.0
e 317 42 1.0
e 318 115 1.0
e 319 303 1.0
e 319 203 1.0
